; Query 33025 -- Type: InitialValues, Instructions: 52161749
(set-option :produce-models true)
(set-logic QF_AUFBV )
(declare-fun A-data-stat () (Array (_ BitVec 32) (_ BitVec 8) ) )
(declare-fun const_arr5 () (Array (_ BitVec 32) (_ BitVec 8) ) )
(assert (=  (select const_arr5 (_ bv0 32) ) (_ bv64 8) ) )
(assert (=  (select const_arr5 (_ bv1 32) ) (_ bv6 8) ) )
(assert (=  (select const_arr5 (_ bv2 32) ) (_ bv0 8) ) )
(assert (=  (select const_arr5 (_ bv3 32) ) (_ bv0 8) ) )
(assert (=  (select const_arr5 (_ bv4 32) ) (_ bv171 8) ) )
(assert (=  (select const_arr5 (_ bv5 32) ) (_ bv171 8) ) )
(assert (=  (select const_arr5 (_ bv6 32) ) (_ bv171 8) ) )
(assert (=  (select const_arr5 (_ bv7 32) ) (_ bv171 8) ) )
(assert (=  (select const_arr5 (_ bv8 32) ) (_ bv0 8) ) )
(assert (=  (select const_arr5 (_ bv9 32) ) (_ bv199 8) ) )
(assert (=  (select const_arr5 (_ bv10 32) ) (_ bv71 8) ) )
(assert (=  (select const_arr5 (_ bv11 32) ) (_ bv45 8) ) )
(assert (=  (select const_arr5 (_ bv12 32) ) (_ bv235 8) ) )
(assert (=  (select const_arr5 (_ bv13 32) ) (_ bv85 8) ) )
(assert (=  (select const_arr5 (_ bv14 32) ) (_ bv0 8) ) )
(assert (=  (select const_arr5 (_ bv15 32) ) (_ bv0 8) ) )
(assert (=  (select const_arr5 (_ bv16 32) ) (_ bv176 8) ) )
(assert (=  (select const_arr5 (_ bv17 32) ) (_ bv161 8) ) )
(assert (=  (select const_arr5 (_ bv18 32) ) (_ bv129 8) ) )
(assert (=  (select const_arr5 (_ bv19 32) ) (_ bv42 8) ) )
(assert (=  (select const_arr5 (_ bv20 32) ) (_ bv235 8) ) )
(assert (=  (select const_arr5 (_ bv21 32) ) (_ bv85 8) ) )
(assert (=  (select const_arr5 (_ bv22 32) ) (_ bv0 8) ) )
(assert (=  (select const_arr5 (_ bv23 32) ) (_ bv0 8) ) )
(assert (=  (select const_arr5 (_ bv24 32) ) (_ bv64 8) ) )
(assert (=  (select const_arr5 (_ bv25 32) ) (_ bv6 8) ) )
(assert (=  (select const_arr5 (_ bv26 32) ) (_ bv0 8) ) )
(assert (=  (select const_arr5 (_ bv27 32) ) (_ bv0 8) ) )
(assert (=  (select const_arr5 (_ bv28 32) ) (_ bv171 8) ) )
(assert (=  (select const_arr5 (_ bv29 32) ) (_ bv171 8) ) )
(assert (=  (select const_arr5 (_ bv30 32) ) (_ bv171 8) ) )
(assert (=  (select const_arr5 (_ bv31 32) ) (_ bv171 8) ) )
(assert (=  (select const_arr5 (_ bv32 32) ) (_ bv0 8) ) )
(assert (=  (select const_arr5 (_ bv33 32) ) (_ bv227 8) ) )
(assert (=  (select const_arr5 (_ bv34 32) ) (_ bv71 8) ) )
(assert (=  (select const_arr5 (_ bv35 32) ) (_ bv45 8) ) )
(assert (=  (select const_arr5 (_ bv36 32) ) (_ bv235 8) ) )
(assert (=  (select const_arr5 (_ bv37 32) ) (_ bv85 8) ) )
(assert (=  (select const_arr5 (_ bv38 32) ) (_ bv0 8) ) )
(assert (=  (select const_arr5 (_ bv39 32) ) (_ bv0 8) ) )
(assert (=  (select const_arr5 (_ bv40 32) ) (_ bv224 8) ) )
(assert (=  (select const_arr5 (_ bv41 32) ) (_ bv25 8) ) )
(assert (=  (select const_arr5 (_ bv42 32) ) (_ bv197 8) ) )
(assert (=  (select const_arr5 (_ bv43 32) ) (_ bv43 8) ) )
(assert (=  (select const_arr5 (_ bv44 32) ) (_ bv235 8) ) )
(assert (=  (select const_arr5 (_ bv45 32) ) (_ bv85 8) ) )
(assert (=  (select const_arr5 (_ bv46 32) ) (_ bv0 8) ) )
(assert (=  (select const_arr5 (_ bv47 32) ) (_ bv0 8) ) )
(assert (=  (select const_arr5 (_ bv48 32) ) (_ bv64 8) ) )
(assert (=  (select const_arr5 (_ bv49 32) ) (_ bv6 8) ) )
(assert (=  (select const_arr5 (_ bv50 32) ) (_ bv0 8) ) )
(assert (=  (select const_arr5 (_ bv51 32) ) (_ bv0 8) ) )
(assert (=  (select const_arr5 (_ bv52 32) ) (_ bv171 8) ) )
(assert (=  (select const_arr5 (_ bv53 32) ) (_ bv171 8) ) )
(assert (=  (select const_arr5 (_ bv54 32) ) (_ bv171 8) ) )
(assert (=  (select const_arr5 (_ bv55 32) ) (_ bv171 8) ) )
(assert (=  (select const_arr5 (_ bv56 32) ) (_ bv0 8) ) )
(assert (=  (select const_arr5 (_ bv57 32) ) (_ bv96 8) ) )
(assert (=  (select const_arr5 (_ bv58 32) ) (_ bv74 8) ) )
(assert (=  (select const_arr5 (_ bv59 32) ) (_ bv45 8) ) )
(assert (=  (select const_arr5 (_ bv60 32) ) (_ bv235 8) ) )
(assert (=  (select const_arr5 (_ bv61 32) ) (_ bv85 8) ) )
(assert (=  (select const_arr5 (_ bv62 32) ) (_ bv0 8) ) )
(assert (=  (select const_arr5 (_ bv63 32) ) (_ bv0 8) ) )
(assert (=  (select const_arr5 (_ bv64 32) ) (_ bv176 8) ) )
(assert (=  (select const_arr5 (_ bv65 32) ) (_ bv202 8) ) )
(assert (=  (select const_arr5 (_ bv66 32) ) (_ bv188 8) ) )
(assert (=  (select const_arr5 (_ bv67 32) ) (_ bv42 8) ) )
(assert (=  (select const_arr5 (_ bv68 32) ) (_ bv235 8) ) )
(assert (=  (select const_arr5 (_ bv69 32) ) (_ bv85 8) ) )
(assert (=  (select const_arr5 (_ bv70 32) ) (_ bv0 8) ) )
(assert (=  (select const_arr5 (_ bv71 32) ) (_ bv0 8) ) )
(assert (=  (select const_arr5 (_ bv72 32) ) (_ bv64 8) ) )
(assert (=  (select const_arr5 (_ bv73 32) ) (_ bv6 8) ) )
(assert (=  (select const_arr5 (_ bv74 32) ) (_ bv0 8) ) )
(assert (=  (select const_arr5 (_ bv75 32) ) (_ bv0 8) ) )
(assert (=  (select const_arr5 (_ bv76 32) ) (_ bv171 8) ) )
(assert (=  (select const_arr5 (_ bv77 32) ) (_ bv171 8) ) )
(assert (=  (select const_arr5 (_ bv78 32) ) (_ bv171 8) ) )
(assert (=  (select const_arr5 (_ bv79 32) ) (_ bv171 8) ) )
(assert (=  (select const_arr5 (_ bv80 32) ) (_ bv0 8) ) )
(assert (=  (select const_arr5 (_ bv81 32) ) (_ bv124 8) ) )
(assert (=  (select const_arr5 (_ bv82 32) ) (_ bv74 8) ) )
(assert (=  (select const_arr5 (_ bv83 32) ) (_ bv45 8) ) )
(assert (=  (select const_arr5 (_ bv84 32) ) (_ bv235 8) ) )
(assert (=  (select const_arr5 (_ bv85 32) ) (_ bv85 8) ) )
(assert (=  (select const_arr5 (_ bv86 32) ) (_ bv0 8) ) )
(assert (=  (select const_arr5 (_ bv87 32) ) (_ bv0 8) ) )
(assert (=  (select const_arr5 (_ bv88 32) ) (_ bv16 8) ) )
(assert (=  (select const_arr5 (_ bv89 32) ) (_ bv183 8) ) )
(assert (=  (select const_arr5 (_ bv90 32) ) (_ bv217 8) ) )
(assert (=  (select const_arr5 (_ bv91 32) ) (_ bv43 8) ) )
(assert (=  (select const_arr5 (_ bv92 32) ) (_ bv235 8) ) )
(assert (=  (select const_arr5 (_ bv93 32) ) (_ bv85 8) ) )
(assert (=  (select const_arr5 (_ bv94 32) ) (_ bv0 8) ) )
(assert (=  (select const_arr5 (_ bv95 32) ) (_ bv0 8) ) )
(assert (let ( (?B1 (concat  (select  A-data-stat (_ bv15 32) ) (concat  (select  A-data-stat (_ bv14 32) ) (concat  (select  A-data-stat (_ bv13 32) ) (concat  (select  A-data-stat (_ bv12 32) ) (concat  (select  A-data-stat (_ bv11 32) ) (concat  (select  A-data-stat (_ bv10 32) ) (concat  (select  A-data-stat (_ bv9 32) ) (select  A-data-stat (_ bv8 32) ) ) ) ) ) ) ) ) ) ) (let ( (?B2 ((_ extract 31  0)  (bvadd  (_ bv18446649605189296656 64) (ite  (=  (_ bv0 64) ?B1 ) (_ bv0 64) (_ bv94468520254976 64) ) ) ) ) ) (let ( (?B3 (concat  (select  const_arr5 (bvadd  (_ bv7 32) ?B2 ) ) (concat  (select  const_arr5 (bvadd  (_ bv6 32) ?B2 ) ) (concat  (select  const_arr5 (bvadd  (_ bv5 32) ?B2 ) ) (concat  (select  const_arr5 (bvadd  (_ bv4 32) ?B2 ) ) (concat  (select  const_arr5 (bvadd  (_ bv3 32) ?B2 ) ) (concat  (select  const_arr5 (bvadd  (_ bv2 32) ?B2 ) ) (concat  (select  const_arr5 (bvadd  (_ bv1 32) ?B2 ) ) (select  const_arr5 ?B2 ) ) ) ) ) ) ) ) ) ) (let ( (?B4 (concat  (select  (store  (store  (store  (store  (store  (store  (store  (store  (store  (store  (store  (store  (store  (store  (store  (store  A-data-stat (_ bv48 32) (_ bv64 8) ) (_ bv49 32) (_ bv6 8) ) (_ bv50 32) (_ bv0 8) ) (_ bv51 32) (_ bv0 8) ) (_ bv52 32) (_ bv0 8) ) (_ bv53 32) (_ bv0 8) ) (_ bv54 32) (_ bv0 8) ) (_ bv55 32) (_ bv0 8) ) (_ bv64 32) (_ bv8 8) ) (_ bv65 32) (_ bv0 8) ) (_ bv66 32) (_ bv0 8) ) (_ bv67 32) (_ bv0 8) ) (_ bv68 32) (_ bv0 8) ) (_ bv69 32) (_ bv0 8) ) (_ bv70 32) (_ bv0 8) ) (_ bv71 32) (_ bv0 8) ) ((_ extract 31  0)  (bvadd  (_ bv18446649605190737583 64) ?B3 ) ) ) (concat  (select  (store  (store  (store  (store  (store  (store  (store  (store  (store  (store  (store  (store  (store  (store  (store  (store  A-data-stat (_ bv48 32) (_ bv64 8) ) (_ bv49 32) (_ bv6 8) ) (_ bv50 32) (_ bv0 8) ) (_ bv51 32) (_ bv0 8) ) (_ bv52 32) (_ bv0 8) ) (_ bv53 32) (_ bv0 8) ) (_ bv54 32) (_ bv0 8) ) (_ bv55 32) (_ bv0 8) ) (_ bv64 32) (_ bv8 8) ) (_ bv65 32) (_ bv0 8) ) (_ bv66 32) (_ bv0 8) ) (_ bv67 32) (_ bv0 8) ) (_ bv68 32) (_ bv0 8) ) (_ bv69 32) (_ bv0 8) ) (_ bv70 32) (_ bv0 8) ) (_ bv71 32) (_ bv0 8) ) ((_ extract 31  0)  (bvadd  (_ bv18446649605190737582 64) ?B3 ) ) ) (concat  (select  (store  (store  (store  (store  (store  (store  (store  (store  (store  (store  (store  (store  (store  (store  (store  (store  A-data-stat (_ bv48 32) (_ bv64 8) ) (_ bv49 32) (_ bv6 8) ) (_ bv50 32) (_ bv0 8) ) (_ bv51 32) (_ bv0 8) ) (_ bv52 32) (_ bv0 8) ) (_ bv53 32) (_ bv0 8) ) (_ bv54 32) (_ bv0 8) ) (_ bv55 32) (_ bv0 8) ) (_ bv64 32) (_ bv8 8) ) (_ bv65 32) (_ bv0 8) ) (_ bv66 32) (_ bv0 8) ) (_ bv67 32) (_ bv0 8) ) (_ bv68 32) (_ bv0 8) ) (_ bv69 32) (_ bv0 8) ) (_ bv70 32) (_ bv0 8) ) (_ bv71 32) (_ bv0 8) ) ((_ extract 31  0)  (bvadd  (_ bv18446649605190737581 64) ?B3 ) ) ) (concat  (select  (store  (store  (store  (store  (store  (store  (store  (store  (store  (store  (store  (store  (store  (store  (store  (store  A-data-stat (_ bv48 32) (_ bv64 8) ) (_ bv49 32) (_ bv6 8) ) (_ bv50 32) (_ bv0 8) ) (_ bv51 32) (_ bv0 8) ) (_ bv52 32) (_ bv0 8) ) (_ bv53 32) (_ bv0 8) ) (_ bv54 32) (_ bv0 8) ) (_ bv55 32) (_ bv0 8) ) (_ bv64 32) (_ bv8 8) ) (_ bv65 32) (_ bv0 8) ) (_ bv66 32) (_ bv0 8) ) (_ bv67 32) (_ bv0 8) ) (_ bv68 32) (_ bv0 8) ) (_ bv69 32) (_ bv0 8) ) (_ bv70 32) (_ bv0 8) ) (_ bv71 32) (_ bv0 8) ) ((_ extract 31  0)  (bvadd  (_ bv18446649605190737580 64) ?B3 ) ) ) (concat  (select  (store  (store  (store  (store  (store  (store  (store  (store  (store  (store  (store  (store  (store  (store  (store  (store  A-data-stat (_ bv48 32) (_ bv64 8) ) (_ bv49 32) (_ bv6 8) ) (_ bv50 32) (_ bv0 8) ) (_ bv51 32) (_ bv0 8) ) (_ bv52 32) (_ bv0 8) ) (_ bv53 32) (_ bv0 8) ) (_ bv54 32) (_ bv0 8) ) (_ bv55 32) (_ bv0 8) ) (_ bv64 32) (_ bv8 8) ) (_ bv65 32) (_ bv0 8) ) (_ bv66 32) (_ bv0 8) ) (_ bv67 32) (_ bv0 8) ) (_ bv68 32) (_ bv0 8) ) (_ bv69 32) (_ bv0 8) ) (_ bv70 32) (_ bv0 8) ) (_ bv71 32) (_ bv0 8) ) ((_ extract 31  0)  (bvadd  (_ bv18446649605190737579 64) ?B3 ) ) ) (concat  (select  (store  (store  (store  (store  (store  (store  (store  (store  (store  (store  (store  (store  (store  (store  (store  (store  A-data-stat (_ bv48 32) (_ bv64 8) ) (_ bv49 32) (_ bv6 8) ) (_ bv50 32) (_ bv0 8) ) (_ bv51 32) (_ bv0 8) ) (_ bv52 32) (_ bv0 8) ) (_ bv53 32) (_ bv0 8) ) (_ bv54 32) (_ bv0 8) ) (_ bv55 32) (_ bv0 8) ) (_ bv64 32) (_ bv8 8) ) (_ bv65 32) (_ bv0 8) ) (_ bv66 32) (_ bv0 8) ) (_ bv67 32) (_ bv0 8) ) (_ bv68 32) (_ bv0 8) ) (_ bv69 32) (_ bv0 8) ) (_ bv70 32) (_ bv0 8) ) (_ bv71 32) (_ bv0 8) ) ((_ extract 31  0)  (bvadd  (_ bv18446649605190737578 64) ?B3 ) ) ) (concat  (select  (store  (store  (store  (store  (store  (store  (store  (store  (store  (store  (store  (store  (store  (store  (store  (store  A-data-stat (_ bv48 32) (_ bv64 8) ) (_ bv49 32) (_ bv6 8) ) (_ bv50 32) (_ bv0 8) ) (_ bv51 32) (_ bv0 8) ) (_ bv52 32) (_ bv0 8) ) (_ bv53 32) (_ bv0 8) ) (_ bv54 32) (_ bv0 8) ) (_ bv55 32) (_ bv0 8) ) (_ bv64 32) (_ bv8 8) ) (_ bv65 32) (_ bv0 8) ) (_ bv66 32) (_ bv0 8) ) (_ bv67 32) (_ bv0 8) ) (_ bv68 32) (_ bv0 8) ) (_ bv69 32) (_ bv0 8) ) (_ bv70 32) (_ bv0 8) ) (_ bv71 32) (_ bv0 8) ) ((_ extract 31  0)  (bvadd  (_ bv18446649605190737577 64) ?B3 ) ) ) (select  (store  (store  (store  (store  (store  (store  (store  (store  (store  (store  (store  (store  (store  (store  (store  (store  A-data-stat (_ bv48 32) (_ bv64 8) ) (_ bv49 32) (_ bv6 8) ) (_ bv50 32) (_ bv0 8) ) (_ bv51 32) (_ bv0 8) ) (_ bv52 32) (_ bv0 8) ) (_ bv53 32) (_ bv0 8) ) (_ bv54 32) (_ bv0 8) ) (_ bv55 32) (_ bv0 8) ) (_ bv64 32) (_ bv8 8) ) (_ bv65 32) (_ bv0 8) ) (_ bv66 32) (_ bv0 8) ) (_ bv67 32) (_ bv0 8) ) (_ bv68 32) (_ bv0 8) ) (_ bv69 32) (_ bv0 8) ) (_ bv70 32) (_ bv0 8) ) (_ bv71 32) (_ bv0 8) ) ((_ extract 31  0)  (bvadd  (_ bv18446649605190737576 64) ?B3 ) ) ) ) ) ) ) ) ) ) ) ) (let ( (?B5 (bvsdiv  (bvadd  (_ bv604800 64) ?B4 ) (_ bv60 64) ) ) ) (let ( (?B6 (bvsub  ?B4 (bvmul  (_ bv60 64) ?B5 ) ) ) (?B7 (bvsdiv  (bvadd  (_ bv18446744073709551615 64) ?B5 ) (_ bv60 64) ) ) ) (let ( (?B8 (bvadd  (_ bv18446744073709551615 64) (bvsub  ?B5 (bvmul  (_ bv60 64) ?B7 ) ) ) ) (?B9 (bvsdiv  ?B7 (_ bv24 64) ) ) ) (let ( (?B10 (bvsub  ?B7 (bvmul  (_ bv24 64) ?B9 ) ) ) ) (let ( (?B11 (bvadd  ((_ sign_extend 32)  ((_ extract 31  0)  (bvadd  (_ bv604860 64) ?B6 ) ) ) (bvmul  (_ bv60 64) (bvadd  ((_ sign_extend 32)  ((_ extract 31  0)  ?B8 ) ) (bvmul  (_ bv60 64) (bvadd  (_ bv18446731637089454368 64) ((_ sign_extend 32)  ((_ extract 31  0)  ?B10 ) ) ) ) ) ) ) ) ) (and  (and  (and  (and  (and  (and  (and  (=  false (bvslt  (bvadd  (_ bv604800 64) (bvsub  ?B11 (bvmul  (_ bv60 64) (bvsdiv  (bvadd  (_ bv604800 64) ?B11 ) (_ bv60 64) ) ) ) ) (_ bv0 64) ) ) (=  false (=  (_ bv0 64) (bvand  ?B1 (_ bv2147483647 64) ) ) ) ) (bvult  (concat  (select  A-data-stat (_ bv63 32) ) (concat  (select  A-data-stat (_ bv62 32) ) (concat  (select  A-data-stat (_ bv61 32) ) (concat  (select  A-data-stat (_ bv60 32) ) (concat  (select  A-data-stat (_ bv59 32) ) (concat  (select  A-data-stat (_ bv58 32) ) (concat  (select  A-data-stat (_ bv57 32) ) (select  A-data-stat (_ bv56 32) ) ) ) ) ) ) ) ) (_ bv65536 64) ) ) (=  false (bvslt  (_ bv9223372036854171007 64) ?B4 ) ) ) (bvslt  (bvadd  (_ bv604800 64) ?B6 ) (_ bv0 64) ) ) (=  false (bvslt  ?B8 (_ bv0 64) ) ) ) (=  false (bvslt  ?B10 (_ bv0 64) ) ) ) (bvult  (_ bv1568446894576 64) (bvadd  (_ bv784223472849 64) ?B9 ) ) ) ) ) ) ) ) ) ) ) ) )
(check-sat)
(exit)
;   FAIL -- Elapsed: 1.200148e+03s
;   Failure reason: SOLVER TIMEOUT
